%-----------------------------------------------------------------------------%
% Dual Arm Multi Capacity Multi Tool Scheduling / Routing
% Assembly Configuration
% Auto Generated by python script, authored by Johan Ludde Wessen 
%-----------------------------------------------------------------------------%


task_durations = [|32, 31, 32, 23, 26, 30, 29, 27, 28, 31, 21, 52, 53, 50, 56, 54, 45, 54, 48, 55, 50, 58, 35, 31, 28, 32, 33, 22, 26, 29, 36,  6,  8,  5,  5,  7,  4,  8,  7,  7,  6
                  |30, 31, 31, 25, 24, 33, 33, 25, 28, 27, 24, 61, 51, 41, 58, 57, 41, 44, 47, 63, 53, 49, 30, 38, 24, 30, 31, 30, 28, 30, 30,  5,  7,  6,  6,  6,  5,  7,  7,  5,  5
                  |];


TRAY_TASKS = 1..9;
CAMERA_TASKS = 23..31;
OUTPUT_TASKS = { 22 };


empty_gripper_tasks = 32..41;


gripper_pick_tasks_orders = [|10, 21, -1
|11, 22, -1
|];

suction_pick_tasks_orders = [|1, 23, 12, -1
|2, 24, 13, -1
|3, 25, 14, -1
|4, 26, 15, -1
|5, 27, 16, -1
|6, 28, 17, -1
|7, 29, 18, -1
|8, 30, 19, -1
|9, 31, 20, -1
|];

fixture_task_orders = [|12, 32, 13, 33, 14, 34, 15, 35, 16, 36, 10, -1
|17, 37, 18, 38, 19, 39, 20, 40, 21, 41, 11, -1
|];

